%chk=exp_crys_branch_improper.chk
# PyZMAT CSPToolbox branch-improper Z-matrix

Axitinib exp_crys branch improper

0 1
C
C	1	bnd2
C	2	bnd3	1	ang3
S	3	bnd4	2	ang4	1	dih4
C	4	bnd5	3	ang5	2	dih5
C	5	bnd6	4	ang6	3	dih6
C	6	bnd7	5	ang7	4	dih7
N	7	bnd8	6	ang8	5	dih8
C	8	bnd9	7	ang9	6	dih9
H	9	bnd10	8	ang10	7	dih10
H	9	bnd11	8	ang11	10	dih11
H	9	bnd12	10	ang12	11	dih12
H	8	bnd13	7	ang13	9	dih13
O	7	bnd14	6	ang14	8	dih14
C	6	bnd15	5	ang15	7	dih15
H	15	bnd16	6	ang16	5	dih16
C	5	bnd17	4	ang17	6	dih17
C	17	bnd18	5	ang18	6	dih18
C	18	bnd19	17	ang19	5	dih19
H	19	bnd20	15	ang20	16	dih20
H	18	bnd21	17	ang21	19	dih21
H	17	bnd22	5	ang22	18	dih22
C	3	bnd23	2	ang23	4	dih23
H	23	bnd24	3	ang24	4	dih24
H	2	bnd25	1	ang25	3	dih25
H	1	bnd26	2	ang26	25	dih26
C	1	bnd27	2	ang27	26	dih27
C	27	bnd28	1	ang28	2	dih28
C	28	bnd29	27	ang29	1	dih29
C	29	bnd30	28	ang30	27	dih30
C	30	bnd31	29	ang31	28	dih31
C	31	bnd32	30	ang32	29	dih32
C	32	bnd33	31	ang33	30	dih33
C	33	bnd34	32	ang34	31	dih34
C	34	bnd35	33	ang35	32	dih35
H	35	bnd36	34	ang36	33	dih36
H	34	bnd37	33	ang37	35	dih37
H	33	bnd38	32	ang38	34	dih38
H	32	bnd39	31	ang39	33	dih39
N	31	bnd40	30	ang40	32	dih40
H	30	bnd41	29	ang41	31	dih41
H	29	bnd42	28	ang42	30	dih42
N	28	bnd43	27	ang43	29	dih43
C	27	bnd44	1	ang44	28	dih44
N	44	bnd45	27	ang45	28	dih45
H	45	bnd46	43	ang46	28	dih46
Variables:
bnd2	 1.381962
bnd3	 1.416664
ang3	 121.497629
bnd4	 1.778132
ang4	 121.002695
dih4	 176.674717
bnd5	 1.783711
ang5	 102.568548
dih5	 70.926192
bnd6	 1.416712
ang6	 120.093831
dih6	 -172.001585
bnd7	 1.498241
ang7	 120.144637
dih7	 -2.607351
bnd8	 1.342105
ang8	 117.490446
dih8	 152.002539
bnd9	 1.447568
ang9	 120.805223
dih9	 178.878428
bnd10	 0.961069
ang10	 109.463635
dih10	 179.931208
bnd11	 0.958894
ang11	 109.542725
dih11	 -119.943772
bnd12	 0.960353
ang12	 109.427106
dih12	 119.988554
bnd13	 0.854945
ang13	 122.841706
dih13	 -172.713952
bnd14	 1.234153
ang14	 121.629101
dih14	 179.828316
bnd15	 1.385433
ang15	 118.788142
dih15	 -177.123198
bnd16	 0.930624
ang16	 119.126164
dih16	 179.584145
bnd17	 1.390019
ang17	 121.485386
dih17	 179.644645
bnd18	 1.369001
ang18	 120.839368
dih18	 -0.518551
bnd19	 1.371474
ang19	 121.053499
dih19	 0.166291
bnd20	 0.929939
ang20	 120.382060
dih20	 0.230712
bnd21	 0.930663
ang21	 119.450686
dih21	 -179.893214
bnd22	 0.929508
ang22	 119.520432
dih22	 -179.982120
bnd23	 1.365648
ang23	 121.166403
dih23	 -175.029647
bnd24	 0.930585
ang24	 121.726806
dih24	 5.152730
bnd25	 0.929269
ang25	 119.311791
dih25	 179.897232
bnd26	 0.929846
ang26	 120.795756
dih26	 -2.036491
bnd27	 1.394995
ang27	 118.201818
dih27	 -179.907542
bnd28	 1.433495
ang28	 136.337517
dih28	 -177.944353
bnd29	 1.451778
ang29	 126.865891
dih29	 -1.467290
bnd30	 1.330224
ang30	 127.304516
dih30	 -179.545739
bnd31	 1.446122
ang31	 126.146628
dih31	 -177.618904
bnd32	 1.390479
ang32	 120.890121
dih32	 -178.679299
bnd33	 1.378176
ang33	 119.250445
dih33	 -178.024873
bnd34	 1.359745
ang34	 119.115029
dih34	 -0.133040
bnd35	 1.377652
ang35	 117.830591
dih35	 -1.155017
bnd36	 0.931152
ang36	 117.611095
dih36	 -178.634409
bnd37	 0.930680
ang37	 121.113555
dih37	 -179.963550
bnd38	 0.929613
ang38	 120.492466
dih38	 -179.927866
bnd39	 0.930142
ang39	 120.343585
dih39	 -179.892088
bnd40	 1.338925
ang40	 117.605112
dih40	 -179.351225
bnd41	 0.930770
ang41	 116.984809
dih41	 179.925618
bnd42	 0.928892
ang42	 116.372183
dih42	 179.947925
bnd43	 1.328165
ang43	 110.758014
dih43	 178.204723
bnd44	 1.386938
ang44	 119.327102
dih44	 178.138697
bnd45	 1.368628
ang45	 107.676646
dih45	 1.400945
bnd46	 0.923715
ang46	 119.794839
dih46	 172.626717
